5 5
4 90 0 56 3 96 2 10 1 87
3 70 1 23 0 92 4 30 2 78
2 37 1 55 0 96 3 49 4 34
0 44 4 22 1 31 2 7 3 21
3 16 1 20 2 43 4 44 0 47
-1
0 1 3 4 5
0 3 5
0 1 2 4 5
0 3 4 5
0 1 2 3 5
-2
128 379 356 530
293 405
49 113 283 309
136 150 187
18 54 94 219

417 5
15 1 7 12 24
21 6 17 11 4
10 22 18 3 9
20 5 19 2 13
0 16 23 8 14
